======================================================================
FINAL CP-SAT: Full solve with greedy warm start
======================================================================
Building greedy warm start...
  Seed 0: depth 15
  Seed 1: depth 16
  Seed 14: depth 17
  Best greedy depth: 17/29

Building CP-SAT model...
  841 x-vars, 10962 d-vars = 11803 total
  378 pair constraints
  Warm start from depth-17 greedy solution

Starting solve (3500s, 8 workers)...

Starting CP-SAT solver v9.15.6755
Parameters: max_time_in_seconds: 3500 log_search_progress: true cp_model_presolve: true num_workers: 8

Initial satisfaction model '': (model_fingerprint: 0x29bfb15b9c98b4ba)
#Variables: 11'803 (11'368 primary variables)
  - 11'803 Booleans in [0,1]
#kBoolAnd: 22 (#enforced: 22) (#literals: 44)
#kBoolXor: 10'962
#kLinear1: 29
#kLinearN: 406 (#terms: 11'774)

Starting presolve at 0.00s
The solution hint is incomplete: 841 out of 11803 non fixed variables hinted.
  1.50e-03s  0.00e+00d  [DetectDominanceRelations] 
  9.38e-03s  0.00e+00d  [PresolveToFixPoint] #num_loops=2 #num_dual_strengthening=1 
  9.71e-05s  0.00e+00d  [ExtractEncodingFromLinear] 
  1.66e-04s  0.00e+00d  [DetectDuplicateColumns] 
  1.29e-03s  0.00e+00d  [DetectDuplicateConstraints] 
[Symmetry] Graph for symmetry has 34'181 nodes and 55'714 arcs.
[Symmetry] Symmetry computation done. time: 0.0270512 dtime: 0.0488526
[Symmetry] #generators: 27, average support size: 866
[Symmetry] 406 orbits on 11422 variables with sizes: 56,56,56,56,56,56,56,56,56,56,...
[Symmetry] Found orbitope of size 406 x 27
[SAT presolve] num removable Booleans: 0 / 11'774
[SAT presolve] num trivial clauses: 0
[SAT presolve] [0s] clauses:22 literals:44 vars:24 one_side_vars:4 simple_definition:20 singleton_clauses:0
[SAT presolve] [3.2802e-05s] clauses:22 literals:44 vars:24 one_side_vars:4 simple_definition:20 singleton_clauses:0
[SAT presolve] [0.00013302s] clauses:22 literals:44 vars:24 one_side_vars:4 simple_definition:20 singleton_clauses:0
  1.28e-03s  0.00e+00d  [DetectDuplicateConstraintsWithDifferentEnforcements] 
  2.72e-02s  8.44e-03d  [Probe] #probed=23'548 #new_binary_clauses=3'824 
  1.03e-04s  3.62e-04d  [MaxClique] 
  1.45e-03s  0.00e+00d  [DetectDominanceRelations] 
  6.39e-03s  0.00e+00d  [PresolveToFixPoint] #num_loops=1 #num_dual_strengthening=1 
  9.91e-04s  0.00e+00d  [ProcessAtMostOneAndLinear] 
  1.30e-03s  0.00e+00d  [DetectDuplicateConstraints] 
  1.30e-03s  0.00e+00d  [DetectDuplicateConstraintsWithDifferentEnforcements] 
  2.10e-04s  3.53e-05d  [DetectDominatedLinearConstraints] #relevant_constraints=406 
  6.14e-05s  0.00e+00d  [DetectDifferentVariables] 
  2.11e-04s  2.37e-05d  [ProcessSetPPC] #relevant_constraints=428 
  6.06e-04s  0.00e+00d  [TransformClausesToExactlyOne] #num_amos=22 
  3.10e-05s  0.00e+00d  [DetectEncodedComplexDomains] 
  1.00e-04s  0.00e+00d  [FindAlmostIdenticalLinearConstraints] 
  3.96e-05s  1.53e-05d  [FindBigAtMostOneAndLinearOverlap] 
  4.56e-04s  1.93e-03d  [FindBigVerticalLinearOverlap] 
  6.16e-05s  5.89e-05d  [FindBigHorizontalLinearOverlap] #linears=406 
  2.60e-05s  0.00e+00d  [MergeClauses] 
  1.44e-03s  0.00e+00d  [DetectDominanceRelations] 
  5.64e-03s  0.00e+00d  [PresolveToFixPoint] #num_loops=1 #num_dual_strengthening=1 
  1.30e-05s  0.00e+00d  [MergeNoOverlap] 
  1.11e-05s  0.00e+00d  [MergeNoOverlap2D] 

Presolve summary:
  - 0 affine relations were detected.
  - rule 'linear1: x in domain' was applied 29 times.
  - rule 'presolve: 29 unused variables removed.' was applied 1 time.
  - rule 'presolve: iteration' was applied 1 time.

Presolved satisfaction model '': (model_fingerprint: 0xfd4178eec62a4e8a)
#Variables: 11'774 (11'368 primary variables)
  - 11'774 Booleans in [0,1]
#kBoolAnd: 22 (#enforced: 22) (#literals: 44)
#kBoolXor: 10'962
#kLinearN: 406 (#terms: 11'774)
[Symmetry] Graph for symmetry has 34'152 nodes and 55'714 arcs.
[Symmetry] Symmetry computation done. time: 0.0287499 dtime: 0.0488509
[Symmetry] #generators: 27, average support size: 866
[Symmetry] 406 orbits on 11422 variables with sizes: 56,56,56,56,56,56,56,56,56,56,...
[Symmetry] Found orbitope of size 406 x 27

Preloading model.
The solution hint is incomplete: 812 out of 11774 non fixed variables hinted.
#Model   0.14s var:11774/11774 constraints:11390/11390

Starting search at 0.15s with 8 workers.
6 full problem subsolvers: [default_lp, max_lp_sym, no_lp, probing, quick_restart, quick_restart_no_lp]
2 first solution subsolvers: [fj, fs_random_no_lp]
2 interleaved subsolvers: [feasibility_pump, rins/rens]
2 helper subsolvers: [neighborhood_helper, synchronization_agent]


Task timing                      n [     min,      max]      avg      dev     time         n [     min,      max]      avg      dev    dtime
           'default_lp':         1 [  58.33m,   58.33m]   58.33m   0.00ns   58.33m         2 [ 10.05ms,    2.22h]    1.11h    1.11h    2.22h
     'feasibility_pump':     22566 [250.67us,  29.06ms]   1.00ms 287.53us   22.65s     22562 [ 73.08us,  73.08us]  73.08us   0.00ns    1.65s
                   'fj':     22566 [ 25.67ms, 137.41ms]  44.76ms  13.59ms   16.84m     22566 [100.07ms, 104.61ms] 100.81ms   1.24ms   37.91m
      'fs_random_no_lp':         1 [  58.33m,   58.33m]   58.33m   0.00ns   58.33m         2 [  9.98ms,    2.29h]    1.14h    1.14h    2.29h
           'max_lp_sym':         1 [  58.33m,   58.33m]   58.33m   0.00ns   58.33m         2 [ 11.56ms,    1.56h]   46.94m   46.94m    1.56h
                'no_lp':         1 [  58.33m,   58.33m]   58.33m   0.00ns   58.33m         2 [  9.98ms,    2.18h]    1.09h    1.09h    2.18h
              'probing':         1 [  58.33m,   58.33m]   58.33m   0.00ns   58.33m         2 [ 10.05ms,    1.84h]   55.17m   55.17m    1.84h
        'quick_restart':         1 [  58.34m,   58.34m]   58.34m   0.00ns   58.34m         2 [ 10.05ms,    1.80h]   54.04m   54.04m    1.80h
  'quick_restart_no_lp':         1 [  58.33m,   58.33m]   58.33m   0.00ns   58.33m         2 [  9.98ms,    1.68h]   50.51m   50.51m    1.68h
            'rins/rens':     20309 [  2.44ms, 493.89ms] 111.12ms 106.35ms   37.61m     10002 [701.25us, 100.32ms] 100.02ms 993.52us   16.67m

Search stats               Bools    Conflicts     Branches  Restarts  BacktrackToRoot    Backtrack      BoolPropag  IntegerPropag
           'default_lp':  11'774  193'478'492  556'077'614    49'322      166'563'906  361'751'645  10'418'416'966  2'369'854'088
      'fs_random_no_lp':  11'774  155'054'309  473'279'682   100'799      129'811'728  284'552'889   8'146'055'742  2'529'291'133
           'max_lp_sym':  11'774  131'111'714  360'938'330    26'417      106'084'718  238'166'870   7'105'538'967  2'217'359'049
                'no_lp':  11'774  191'914'468  546'707'167    65'486      156'680'288  350'002'463   9'864'948'869  2'281'117'197
              'probing':  11'774  214'448'407  329'803'571   205'812       36'511'846  250'167'309  12'167'868'577  1'864'848'913
        'quick_restart':  11'774    8'459'254  490'367'702   775'160       97'952'912  108'605'626   4'476'932'414  3'845'108'808
  'quick_restart_no_lp':  11'774    8'201'854  462'017'334   727'380       94'434'186  104'622'334   4'206'900'273  3'611'783'201

SAT formula               Fixed  Equiv   Total  VarLeft  BinaryClauses  PermanentClauses  TemporaryClauses
           'default_lp':      0      0  11'774   11'774            828           356'397             7'793
      'fs_random_no_lp':      0      0  11'774   11'774            828           359'023            13'615
           'max_lp_sym':      0      0  11'774   11'774            828           356'892             7'618
                'no_lp':      0      0  11'774   11'774            828           357'147             9'937
              'probing':      0      0  11'774   11'774            828           440'598            13'713
        'quick_restart':      0      0  11'774   11'774            828           361'923            12'267
  'quick_restart_no_lp':      0      0  11'774   11'774            828           361'768            11'647

SAT stats                 ClassicMinim     LitRemoved  LitRemovedBinary     LitLearned   LitForgotten    Subsumed
           'default_lp':   106'908'405  1'067'337'392        61'187'064  6'072'076'537  4'340'775'482  58'217'932
      'fs_random_no_lp':    25'946'778     93'088'853         1'122'783  6'165'772'855  6'034'307'113   3'129'231
           'max_lp_sym':    74'224'166    753'545'803        40'570'377  4'091'694'959  2'907'202'931  39'976'855
                'no_lp':   107'574'359  1'084'229'163        47'774'811  5'987'216'478  4'300'990'115  57'271'858
              'probing':   108'184'647    954'009'902        54'136'319  7'196'289'896  5'567'053'274  52'270'176
        'quick_restart':     2'262'561     16'001'205           404'756    317'552'158    293'293'031     682'089
  'quick_restart_no_lp':     2'047'656      9'152'267           211'421    288'431'442    257'020'496     880'823

Vivification                  Clauses    Decisions  LitTrue  Subsumed  LitRemoved  DecisionReused  Conflicts
           'default_lp':  137'973'565  298'024'854        0   268'865   1'164'225       3'739'468      1'122
      'fs_random_no_lp':  106'265'462  244'374'842        0   288'520   1'346'651       3'825'612      3'815
           'max_lp_sym':   86'936'022  188'023'162        0   266'611   1'150'126       2'369'405        846
                'no_lp':  129'946'510  291'560'074        0   280'687   1'217'539       4'217'418      1'112
              'probing':    1'201'919    3'313'909        0   112'256     576'991          81'135      2'001
        'quick_restart':   79'064'430  183'073'651        0   308'869   1'460'630       3'079'882      6'172
  'quick_restart_no_lp':   76'223'383  175'163'152        0   306'363   1'433'113       2'828'047      5'892

Clause deletion           at_true  l_and_not(l)  to_binary  sub_conflict  sub_extra  sub_decisions  sub_eager  sub_vivify  sub_probing  sub_inpro  blocked  eliminated    forgotten     promoted    conflicts
           'default_lp':        0             0          0    56'904'664  1'003'203        614'210  1'313'268     268'865            0    129'219        0           0  133'584'321  384'696'129  193'478'492
      'fs_random_no_lp':        0             0          0     3'046'687  3'313'974            461     82'544     288'520            0    153'162        0           0  148'439'268  314'550'786  155'054'309
           'max_lp_sym':        0             0          0    39'116'522    775'027        379'389    860'333     266'611            0    134'149        0           0   89'936'610  260'353'144  131'111'714
                'no_lp':        0             0          0    56'031'788  1'392'241        526'697  1'240'070     280'687            0    125'297        0           0  132'657'213  381'321'998  191'914'468
              'probing':        0             0          0    50'624'452  1'706'862            340  1'645'724     112'256            0    342'601        0           0  160'241'352  435'151'611  214'448'407
        'quick_restart':        0             0          0       654'904    134'076            654     27'185     308'869            0    173'169        0           0    7'307'969   15'448'071    8'459'254
  'quick_restart_no_lp':        0             0          0       791'039    174'806            608     89'784     306'363            0    162'594        0           0    6'836'433   14'333'938    8'201'854

Lp stats         Component  Iterations  AddedCuts    OPTIMAL  DUAL_F.  DUAL_U.
  'max_lp_sym':         29           0          0  6'566'500        0        0

Lp dimension     Final dimension of first component
  'max_lp_sym':        1 rows, 2 columns, 2 entries

Lp debug         CutPropag  CutEqPropag  Adjust  Overflow  Bad  BadScaling
  'max_lp_sym':          0            0       0         0    0           0

Lp pool          Constraints  Updates  Simplif  Merged  Shortened  Split  Strengthened  Cuts/Call
  'max_lp_sym':           95        0        0       0          0      0             0        0/0

LNS stats       Improv/Calls  Closed  Difficulty  TimeLimit
  'rins/rens':   20009/20009     50%    9.79e-01       0.10

LS stats                                    Batches  Restarts/Perturbs   LinMoves    GenMoves  CompoundMoves  Bactracks  WeightUpdates  ScoreComputed
                             'fj_restart':    1'329                278  1'678'355  38'377'339              0          0        210'379    157'742'527
                    'fj_restart_compound':    1'341                285          0   9'431'036      2'027'825  3'701'071            355    246'333'522
                'fj_restart_compound_obj':    1'931                267          0  14'781'489      2'076'641  6'352'037            402    351'374'025
            'fj_restart_compound_perturb':      934                277          0   4'489'975      1'905'831  1'291'533            288    170'999'698
        'fj_restart_compound_perturb_obj':    1'102                252          0   7'080'529      1'809'128  2'635'075            298    202'489'072
                       'fj_restart_decay':    2'201                275  1'925'048  86'188'270              0          0         85'700    216'261'457
              'fj_restart_decay_compound':    1'507                281          0  15'998'998      2'094'583  6'951'669            338    277'349'668
          'fj_restart_decay_compound_obj':    1'219                275          0  11'296'487      1'966'966  4'664'271            314    223'768'001
      'fj_restart_decay_compound_perturb':      894                233          0   6'722'163      1'683'999  2'518'372            261    164'400'188
  'fj_restart_decay_compound_perturb_obj':      886                262          0   6'017'648      1'859'879  2'078'238            287    163'041'982
                   'fj_restart_decay_obj':    1'270                275  1'755'334  49'480'972              0          0         50'023    126'943'507
               'fj_restart_decay_perturb':    1'438                299  1'882'810  56'149'300              0          0         55'043    143'468'034
           'fj_restart_decay_perturb_obj':    1'884                268  1'790'344  73'667'514              0          0         73'599    185'474'922
                         'fj_restart_obj':    1'291                305  1'832'456  37'570'796              0          0        193'412    153'783'910
                     'fj_restart_perturb':    1'765                256  1'550'401  50'511'093              0          0        288'326    207'588'356
                 'fj_restart_perturb_obj':    1'574                262  1'572'916  45'179'594              0          0        251'519    185'857'589

Solution repositories        Added  Queried  Synchro
    'alternative_path':          0        0        0
      'best_solutions':          0        0        0
   'fj solution hints':      4'342        0    4'342
        'lp solutions':  1'515'099   10'223   53'792
                'pump':     22'565   10'086

Clauses shared            #Exported  #Imported  #BinaryRead  #BinaryTotal
           'default_lp':     84'985    703'467            0             0
      'fs_random_no_lp':    196'723    642'984            0             0
           'max_lp_sym':     56'517    721'518            0             0
                'no_lp':     80'350    706'636            0             0
              'probing':    131'755    679'514            0             0
        'quick_restart':    349'534    521'778            0             0
  'quick_restart_no_lp':    323'458    533'239            0             0

LRAT_status: NA
CpSolverResponse summary:
status: UNKNOWN
objective: NA
best_bound: NA
integers: 11774
booleans: 11774
conflicts: 214448407
branches: 329803571
propagations: 12167868577
integer_propagations: 1864848913
restarts: 205812
lp_iterations: 0
walltime: 3500.36
usertime: 3500.36
deterministic_time: 52186
gap_integral: 0


Status: UNKNOWN
Wall time: 3500.4s
No solution found within time limit.
